26 4
85 52 33 62 33 74 29 80 68 78 55 42 39 78 54 96 57 27 77 82 59 97 88 87 81 54
100 26 68 63 82 27 83 77 83 66 22 45 49 92 76 13 66 85 18 10 52 43 78 59 68 43
12 22 83 87 86 97 82 41 80 91 78 25 52 10 45 30 78 87 73 53 44 38 80 41 41 70
69 100 93 93 80 50 90 12 16 78 64 86 17 56 62 70 97 25 48 85 18 47 10 76 58 54
